# Solution for model r10_t36_m4_9 Batch Number: 2
# Finished Task: 36 / 36
# Makespan: 499.0, Total Distance: 393.0, Total Time: 32.9875
# R O S F Batch
0 0 43 0.0 0.0 -1
1 1 15 0.0 0.0 -1
2 2 41 0.0 0.0 -1
3 3 36 0.0 0.0 -1
4 4 20 0.0 0.0 -1
5 5 27 0.0 0.0 -1
6 6 42 0.0 0.0 -1
7 7 25 0.0 0.0 -1
8 8 21 0.0 0.0 -1
9 9 29 0.0 0.0 -1
10 3 -1 355.0 383.0 0
11 8 23 428.0 464.0 1
12 1 24 398.0 437.0 1
13 5 31 324.0 358.0 1
14 7 -1 437.0 462.0 1
15 1 12 331.0 365.0 0
16 6 -1 462.0 499.0 1
17 9 32 365.0 396.0 1
18 6 39 306.0 337.0 0
19 0 -1 356.0 394.0 1
20 4 34 208.0 247.0 0
21 8 11 363.0 383.0 0
22 2 -1 437.0 458.0 1
23 8 -1 478.0 499.0 1
24 1 -1 437.0 466.0 1
25 7 45 134.0 158.0 0
26 4 -1 439.0 473.0 1
27 5 13 31.0 58.0 0
28 2 22 357.0 383.0 0
29 9 17 200.0 228.0 0
30 7 14 319.0 343.0 0
31 5 33 379.0 403.0 1
32 9 37 396.0 423.0 1
33 5 35 419.0 439.0 1
34 4 26 247.0 285.0 0
35 5 -1 473.0 499.0 1
36 3 10 172.0 192.0 0
37 9 -1 457.0 492.0 1
38 7 44 225.0 258.0 0
39 6 16 345.0 379.0 0
40 7 30 285.0 319.0 0
41 2 28 192.0 221.0 0
42 6 18 248.0 280.0 0
43 0 19 112.0 137.0 0
44 7 40 258.0 285.0 0
45 7 38 175.0 197.0 0
